20	5
0	7	6	1	4	3	7	5	2
1	1	18
2	2	18	13
3	2	15	9
4	1	16
5	1	15
6	2	8	9
7	3	16	9	11
8	2	20	12
9	2	13	20
10	1	19
11	2	17	10
12	2	18	11
13	1	21
14	1	21
15	1	21
16	1	21
17	1	21
18	1	21
19	1	21
20	1	21
21	0
0	0	0	0	0	0	0
1	7	0	1	5	2	5
2	3	1	1	4	5	2
3	9	2	2	5	5	2
4	1	5	0	2	0	2
5	7	2	3	4	4	4
6	8	1	0	5	3	0
7	10	2	0	3	2	0
8	2	4	5	1	1	3
9	2	4	0	4	3	4
10	8	0	2	5	0	5
11	6	0	5	0	0	2
12	2	2	2	5	5	3
13	1	1	4	5	4	5
14	7	0	0	0	4	5
15	8	5	0	1	2	0
16	1	0	1	3	4	0
17	1	3	1	2	5	2
18	2	2	3	2	1	1
19	5	0	1	0	4	0
20	8	5	1	0	2	0
21	0	0	0	0	0	0
7	6	11	9	8
